Traveling Salesman Problem/TSP_generados/Aleatorio1621103289_8.tsp
NAME: Aleatorio1621103289_8.tsp
COMMENT: Randomly generated scenario
TYPE: TSP
DIMENSION: 8
EDGE_WEIGHT_TYPE: ATT
NODE_COORD_SECTION
1 31.88 16.44
2 19.99 31.06
3 7.3 17.41
4 4.5 39.43
5 37.7 45.11
6 25.24 33.55
7 21.75 35.93
8 9.3 17.73
