Traveling Salesman Problem/TSP_generados/Aleatorio1621103289_8.opt.tour
NAME: Aleatorio1621103289_8.opt.tour
COMMENT: Optimal solution for Aleatorio1621103289_8 (120.10023061318377)
TYPE: TOUR
DIMENSION: 8
TOUR_SECTION
1 8 3 4 2 7 6 5
-1
EOF
